eval/18-encs/equiv_enc_286.smt2
; SWAP1 DUP2 SWAP1 SHA3 SWAP1 DUP1 => DUP1 DUP1 SWAP3 SHA3 SWAP2
(set-option :produce-proofs true)
; 
(set-info :status unknown)
(declare-fun storage_t ((_ BitVec 256) (_ BitVec 256) (_ BitVec 256) Int (_ BitVec 256)) (_ BitVec 256))
(declare-fun storage_s ((_ BitVec 256) (_ BitVec 256) (_ BitVec 256) Int (_ BitVec 256)) (_ BitVec 256))
(declare-fun exc_halt_t (Int) Bool)
(declare-fun exc_halt_s (Int) Bool)
(declare-fun stack_t ((_ BitVec 256) (_ BitVec 256) (_ BitVec 256) Int (_ BitVec 6)) (_ BitVec 256))
(declare-fun stack_s ((_ BitVec 256) (_ BitVec 256) (_ BitVec 256) Int (_ BitVec 6)) (_ BitVec 256))
(declare-fun sc_t (Int) (_ BitVec 6))
(declare-fun sc_s (Int) (_ BitVec 6))
(declare-fun used_gas_t ((_ BitVec 256) (_ BitVec 256) (_ BitVec 256) Int) Int)
(declare-fun used_gas_s ((_ BitVec 256) (_ BitVec 256) (_ BitVec 256) Int) Int)
(declare-fun f_SHA3 ((_ BitVec 256) (_ BitVec 256) (_ BitVec 256) (_ BitVec 256) (_ BitVec 256)) (_ BitVec 256))
(assert
 (exists ((x_0 (_ BitVec 256)) (x_1 (_ BitVec 256)) (x_SHA3_0 (_ BitVec 256)) )(let (($x8484 (forall ((w (_ BitVec 256)) )(let ((?x9448 (storage_t x_0 x_1 x_SHA3_0 5 w)))
 (let ((?x8738 (storage_s x_0 x_1 x_SHA3_0 6 w)))
 (= ?x8738 ?x9448))))
 ))
 (let (($x886 (exc_halt_t 5)))
 (let (($x772 (exc_halt_s 6)))
 (let (($x889 (= $x772 $x886)))
 (let (($x3722 (forall ((n (_ BitVec 6)) )(let ((?x1040 (stack_t x_0 x_1 x_SHA3_0 5 n)))
 (let ((?x3515 (stack_s x_0 x_1 x_SHA3_0 6 n)))
 (let (($x3294 (= ?x3515 ?x1040)))
 (let ((?x919 (sc_t 5)))
 (let (($x2064 (bvsle ?x919 n)))
 (or $x2064 $x3294)))))))
 ))
 (let ((?x919 (sc_t 5)))
 (let ((?x926 (sc_s 6)))
 (let (($x929 (= ?x926 ?x919)))
 (let ((?x2523 (used_gas_t x_0 x_1 x_SHA3_0 0)))
 (let ((?x8131 (used_gas_s x_0 x_1 x_SHA3_0 0)))
 (let (($x5354 (= ?x8131 ?x2523)))
 (let (($x8419 (forall ((w (_ BitVec 256)) )(let ((?x3548 (storage_t x_0 x_1 x_SHA3_0 0 w)))
 (let ((?x3296 (storage_s x_0 x_1 x_SHA3_0 0 w)))
 (= ?x3296 ?x3548))))
 ))
 (let (($x56 (exc_halt_t 0)))
 (let (($x57 (exc_halt_s 0)))
 (let (($x58 (= $x57 $x56)))
 (let (($x5449 (forall ((n (_ BitVec 6)) )(let ((?x63 (sc_t 0)))
 (let (($x6321 (bvsle ?x63 n)))
 (let ((?x3134 (stack_t x_0 x_1 x_SHA3_0 0 n)))
 (let ((?x2604 (stack_s x_0 x_1 x_SHA3_0 0 n)))
 (let (($x3216 (= ?x2604 ?x3134)))
 (or $x3216 $x6321)))))))
 ))
 (let ((?x63 (sc_t 0)))
 (let ((?x72 (sc_s 0)))
 (let (($x73 (= ?x72 ?x63)))
 (let (($x8206 (= $x886 (or (exc_halt_t 4) (not (bvsle (_ bv0 6) (bvadd (_ bv61 6) (sc_t 4))))))))
 (let (($x1615 (forall ((w (_ BitVec 256)) )(let ((?x1924 (storage_t x_0 x_1 x_SHA3_0 4 w)))
 (let ((?x9448 (storage_t x_0 x_1 x_SHA3_0 5 w)))
 (= ?x9448 ?x1924))))
 ))
 (let (($x1142 (forall ((n (_ BitVec 6)) )(let ((?x4187 (stack_t x_0 x_1 x_SHA3_0 4 n)))
 (let ((?x1040 (stack_t x_0 x_1 x_SHA3_0 5 n)))
 (or (bvsle (bvadd (_ bv61 6) (sc_t 4)) n) (= ?x1040 ?x4187)))))
 ))
 (let (($x450 (= (used_gas_t x_0 x_1 x_SHA3_0 5) (+ 3 (used_gas_t x_0 x_1 x_SHA3_0 4)))))
 (let (($x7357 (= (stack_t x_0 x_1 x_SHA3_0 5 (bvadd (_ bv62 6) ?x919)) (stack_t x_0 x_1 x_SHA3_0 4 (bvadd (_ bv62 6) (sc_t 4))))))
 (let ((?x3757 (sc_t 4)))
 (let ((?x10337 (bvadd (_ bv63 6) ?x3757)))
 (let ((?x3259 (stack_t x_0 x_1 x_SHA3_0 4 ?x10337)))
 (let (($x2247 (= (stack_t x_0 x_1 x_SHA3_0 5 (bvadd (_ bv63 6) ?x919)) (stack_t x_0 x_1 x_SHA3_0 4 (bvadd (_ bv61 6) ?x3757)))))
 (let (($x3723 (exc_halt_t 4)))
 (let (($x6800 (= $x3723 (or (exc_halt_t 3) (not (bvsle (_ bv0 6) (bvadd (_ bv62 6) (sc_t 3))))))))
 (let (($x5307 (forall ((w (_ BitVec 256)) )(let ((?x1541 (storage_t x_0 x_1 x_SHA3_0 3 w)))
 (let ((?x1924 (storage_t x_0 x_1 x_SHA3_0 4 w)))
 (= ?x1924 ?x1541))))
 ))
 (let (($x4029 (forall ((n (_ BitVec 6)) )(let ((?x3449 (stack_t x_0 x_1 x_SHA3_0 3 n)))
 (let ((?x4187 (stack_t x_0 x_1 x_SHA3_0 4 n)))
 (or (= ?x4187 ?x3449) (bvsle (bvadd (_ bv62 6) (sc_t 3)) n)))))
 ))
 (let ((?x1636 (used_gas_t x_0 x_1 x_SHA3_0 4)))
 (let ((?x2725 (sc_t 3)))
 (let ((?x11268 (bvadd (_ bv62 6) ?x2725)))
 (let ((?x111 (stack_t x_0 x_1 x_SHA3_0 3 ?x11268)))
 (let ((?x6571 (bvadd (_ bv63 6) ?x2725)))
 (let ((?x8792 (stack_t x_0 x_1 x_SHA3_0 3 ?x6571)))
 (let (($x2075 (exc_halt_t 3)))
 (let (($x8648 (= $x2075 (or (exc_halt_t 2) (not (bvsle (_ bv0 6) (bvadd (_ bv60 6) (sc_t 2))))))))
 (let (($x7610 (forall ((w (_ BitVec 256)) )(let ((?x3164 (storage_t x_0 x_1 x_SHA3_0 2 w)))
 (let ((?x1541 (storage_t x_0 x_1 x_SHA3_0 3 w)))
 (= ?x1541 ?x3164))))
 ))
 (let (($x3317 (forall ((n (_ BitVec 6)) )(let ((?x374 (stack_t x_0 x_1 x_SHA3_0 2 n)))
 (let ((?x3449 (stack_t x_0 x_1 x_SHA3_0 3 n)))
 (or (bvsle (bvadd (_ bv60 6) (sc_t 2)) n) (= ?x3449 ?x374)))))
 ))
 (let ((?x2714 (sc_t 2)))
 (let (($x2548 (= ?x2725 ?x2714)))
 (let ((?x5902 (used_gas_t x_0 x_1 x_SHA3_0 3)))
 (let (($x9914 (= (stack_t x_0 x_1 x_SHA3_0 3 (bvadd (_ bv61 6) ?x2725)) (stack_t x_0 x_1 x_SHA3_0 2 (bvadd (_ bv61 6) ?x2714)))))
 (let ((?x11371 (bvadd (_ bv63 6) ?x2714)))
 (let ((?x11719 (stack_t x_0 x_1 x_SHA3_0 2 ?x11371)))
 (let (($x10979 (not (bvsle (_ bv0 6) (bvadd (_ bv63 6) (sc_t 1))))))
 (let (($x8096 (exc_halt_t 1)))
 (let (($x5025 (or $x8096 (not (= ((_ extract 6 6) (bvadd (_ bv1 7) (concat (_ bv0 1) (sc_t 1)))) (_ bv0 1))) $x10979)))
 (let (($x5252 (exc_halt_t 2)))
 (let (($x260 (forall ((w (_ BitVec 256)) )(let ((?x7084 (storage_t x_0 x_1 x_SHA3_0 1 w)))
 (let ((?x3164 (storage_t x_0 x_1 x_SHA3_0 2 w)))
 (= ?x3164 ?x7084))))
 ))
 (let (($x2338 (forall ((n (_ BitVec 6)) )(let ((?x10950 (sc_t 1)))
 (let ((?x2841 (bvadd (_ bv63 6) ?x10950)))
 (let (($x6081 (bvsle ?x2841 n)))
 (let ((?x4728 (stack_t x_0 x_1 x_SHA3_0 1 n)))
 (let ((?x374 (stack_t x_0 x_1 x_SHA3_0 2 n)))
 (or (= ?x374 ?x4728) $x6081)))))))
 ))
 (let ((?x5924 (used_gas_t x_0 x_1 x_SHA3_0 2)))
 (let ((?x10950 (sc_t 1)))
 (let ((?x2841 (bvadd (_ bv63 6) ?x10950)))
 (let ((?x3437 (stack_t x_0 x_1 x_SHA3_0 1 ?x2841)))
 (let (($x6182 (not (= ((_ extract 6 6) (bvadd (_ bv1 7) (concat (_ bv0 1) ?x63))) (_ bv0 1)))))
 (let (($x6067 (forall ((w (_ BitVec 256)) )(let ((?x3548 (storage_t x_0 x_1 x_SHA3_0 0 w)))
 (let ((?x7084 (storage_t x_0 x_1 x_SHA3_0 1 w)))
 (= ?x7084 ?x3548))))
 ))
 (let (($x10522 (forall ((n (_ BitVec 6)) )(let ((?x3134 (stack_t x_0 x_1 x_SHA3_0 0 n)))
 (let ((?x4728 (stack_t x_0 x_1 x_SHA3_0 1 n)))
 (or (bvsle (bvadd (_ bv63 6) (sc_t 0)) n) (= ?x4728 ?x3134)))))
 ))
 (let (($x6864 (= ?x10950 (bvadd (_ bv1 6) ?x63))))
 (let ((?x4768 (bvadd (_ bv63 6) ?x63)))
 (let ((?x3379 (stack_t x_0 x_1 x_SHA3_0 0 ?x4768)))
 (let (($x9579 (not (= ((_ extract 6 6) (bvadd (_ bv1 7) (concat (_ bv0 1) (sc_s 5)))) (_ bv0 1)))))
 (let (($x3979 (exc_halt_s 5)))
 (let (($x3194 (forall ((w (_ BitVec 256)) )(let ((?x9683 (storage_s x_0 x_1 x_SHA3_0 5 w)))
 (let ((?x8738 (storage_s x_0 x_1 x_SHA3_0 6 w)))
 (= ?x8738 ?x9683))))
 ))
 (let (($x1267 (forall ((n (_ BitVec 6)) )(let ((?x1110 (stack_s x_0 x_1 x_SHA3_0 5 n)))
 (let ((?x3515 (stack_s x_0 x_1 x_SHA3_0 6 n)))
 (or (= ?x3515 ?x1110) (bvsle (bvadd (_ bv63 6) (sc_s 5)) n)))))
 ))
 (let (($x9087 (= ?x926 (bvadd (_ bv1 6) (sc_s 5)))))
 (let (($x6060 (= (used_gas_s x_0 x_1 x_SHA3_0 6) (+ 3 (used_gas_s x_0 x_1 x_SHA3_0 5)))))
 (let ((?x805 (sc_s 5)))
 (let ((?x5665 (bvadd (_ bv63 6) ?x805)))
 (let ((?x2652 (stack_s x_0 x_1 x_SHA3_0 5 ?x5665)))
 (let (($x136 (= $x3979 (or (exc_halt_s 4) (not (bvsle (_ bv0 6) (bvadd (_ bv62 6) (sc_s 4))))))))
 (let (($x259 (forall ((w (_ BitVec 256)) )(let ((?x7455 (storage_s x_0 x_1 x_SHA3_0 4 w)))
 (let ((?x9683 (storage_s x_0 x_1 x_SHA3_0 5 w)))
 (= ?x9683 ?x7455))))
 ))
 (let (($x694 (forall ((n (_ BitVec 6)) )(let ((?x4305 (sc_s 4)))
 (let ((?x3279 (bvadd (_ bv62 6) ?x4305)))
 (let (($x3606 (bvsle ?x3279 n)))
 (let ((?x8817 (stack_s x_0 x_1 x_SHA3_0 4 n)))
 (let ((?x1110 (stack_s x_0 x_1 x_SHA3_0 5 n)))
 (or (= ?x1110 ?x8817) $x3606)))))))
 ))
 (let ((?x4305 (sc_s 4)))
 (let (($x7896 (= ?x805 ?x4305)))
 (let ((?x8367 (used_gas_s x_0 x_1 x_SHA3_0 5)))
 (let ((?x7007 (bvadd (_ bv63 6) ?x4305)))
 (let ((?x7589 (stack_s x_0 x_1 x_SHA3_0 4 ?x7007)))
 (let (($x7172 (exc_halt_s 4)))
 (let (($x6252 (= $x7172 (or (exc_halt_s 3) (not (bvsle (_ bv0 6) (bvadd (_ bv62 6) (sc_s 3))))))))
 (let (($x8575 (forall ((w (_ BitVec 256)) )(let ((?x1017 (storage_s x_0 x_1 x_SHA3_0 3 w)))
 (let ((?x7455 (storage_s x_0 x_1 x_SHA3_0 4 w)))
 (= ?x7455 ?x1017))))
 ))
 (let (($x5610 (forall ((n (_ BitVec 6)) )(let ((?x275 (sc_s 3)))
 (let ((?x9431 (bvadd (_ bv62 6) ?x275)))
 (let (($x11113 (bvsle ?x9431 n)))
 (let ((?x2693 (stack_s x_0 x_1 x_SHA3_0 3 n)))
 (let ((?x8817 (stack_s x_0 x_1 x_SHA3_0 4 n)))
 (or (= ?x8817 ?x2693) $x11113)))))))
 ))
 (let ((?x275 (sc_s 3)))
 (let ((?x10342 (bvadd (_ bv63 6) ?x275)))
 (let (($x5912 (= ?x4305 ?x10342)))
 (let ((?x2701 (used_gas_s x_0 x_1 x_SHA3_0 4)))
 (let ((?x9431 (bvadd (_ bv62 6) ?x275)))
 (let ((?x3295 (stack_s x_0 x_1 x_SHA3_0 3 ?x9431)))
 (let ((?x2030 (stack_s x_0 x_1 x_SHA3_0 3 ?x10342)))
 (let (($x292 (exc_halt_s 3)))
 (let (($x9976 (= $x292 (or (exc_halt_s 2) (not (bvsle (_ bv0 6) (bvadd (_ bv62 6) (sc_s 2))))))))
 (let (($x6173 (forall ((w (_ BitVec 256)) )(let ((?x3451 (storage_s x_0 x_1 x_SHA3_0 2 w)))
 (let ((?x1017 (storage_s x_0 x_1 x_SHA3_0 3 w)))
 (= ?x1017 ?x3451))))
 ))
 (let (($x8072 (forall ((n (_ BitVec 6)) )(let ((?x218 (sc_s 2)))
 (let ((?x8765 (bvadd (_ bv62 6) ?x218)))
 (let (($x1654 (bvsle ?x8765 n)))
 (let ((?x4059 (stack_s x_0 x_1 x_SHA3_0 2 n)))
 (let ((?x2693 (stack_s x_0 x_1 x_SHA3_0 3 n)))
 (or (= ?x2693 ?x4059) $x1654)))))))
 ))
 (let ((?x218 (sc_s 2)))
 (let (($x7306 (= ?x275 ?x218)))
 (let ((?x3386 (used_gas_s x_0 x_1 x_SHA3_0 3)))
 (let (($x7215 (not (bvsle (_ bv0 6) (bvadd (_ bv62 6) (sc_s 1))))))
 (let (($x4050 (not (= ((_ extract 6 6) (bvadd (_ bv1 7) (concat (_ bv0 1) (sc_s 1)))) (_ bv0 1)))))
 (let (($x189 (exc_halt_s 1)))
 (let (($x247 (exc_halt_s 2)))
 (let (($x8595 (forall ((w (_ BitVec 256)) )(let ((?x3991 (storage_s x_0 x_1 x_SHA3_0 1 w)))
 (let ((?x3451 (storage_s x_0 x_1 x_SHA3_0 2 w)))
 (= ?x3451 ?x3991))))
 ))
 (let (($x9537 (forall ((n (_ BitVec 6)) )(let ((?x154 (sc_s 1)))
 (let ((?x1874 (bvadd (_ bv62 6) ?x154)))
 (let (($x10991 (bvsle ?x1874 n)))
 (let ((?x6668 (stack_s x_0 x_1 x_SHA3_0 1 n)))
 (let ((?x4059 (stack_s x_0 x_1 x_SHA3_0 2 n)))
 (or (= ?x4059 ?x6668) $x10991)))))))
 ))
 (let (($x4375 (= ?x218 (bvadd (_ bv1 6) (sc_s 1)))))
 (let ((?x6262 (used_gas_s x_0 x_1 x_SHA3_0 2)))
 (let ((?x154 (sc_s 1)))
 (let ((?x2527 (bvadd (_ bv63 6) ?x154)))
 (let ((?x7626 (stack_s x_0 x_1 x_SHA3_0 1 ?x2527)))
 (let ((?x1874 (bvadd (_ bv62 6) ?x154)))
 (let ((?x1202 (stack_s x_0 x_1 x_SHA3_0 1 ?x1874)))
 (let (($x1764 (forall ((w (_ BitVec 256)) )(let ((?x3296 (storage_s x_0 x_1 x_SHA3_0 0 w)))
 (let ((?x3991 (storage_s x_0 x_1 x_SHA3_0 1 w)))
 (= ?x3991 ?x3296))))
 ))
 (let (($x4467 (forall ((n (_ BitVec 6)) )(let ((?x2604 (stack_s x_0 x_1 x_SHA3_0 0 n)))
 (let ((?x6668 (stack_s x_0 x_1 x_SHA3_0 1 n)))
 (or (bvsle (bvadd (_ bv62 6) (sc_s 0)) n) (= ?x6668 ?x2604)))))
 ))
 (let (($x6391 (= ?x154 ?x72)))
 (let (($x8788 (forall ((w0 (_ BitVec 256)) (w1 (_ BitVec 256)) )(let (($x7794 (and (= (stack_s x_0 x_1 x_SHA3_0 3 (bvadd (_ bv63 6) (sc_s 3))) w0) (= (stack_s x_0 x_1 x_SHA3_0 3 (bvadd (_ bv62 6) (sc_s 3))) w1))))
 (let ((?x6255 (f_SHA3 x_0 x_1 x_SHA3_0 w0 w1)))
 (= ?x6255 (ite $x7794 x_SHA3_0 (_ bv0 256))))))
 ))
 (let (($x3682 (forall ((w (_ BitVec 256)) )(let ((?x3296 (storage_s x_0 x_1 x_SHA3_0 0 w)))
 (= ?x3296 (_ bv0 256))))
 ))
 (let (($x6540 (= ?x8131 0)))
 (let (($x1438 (not $x57)))
 (let (($x5442 (= (stack_s x_0 x_1 x_SHA3_0 0 (_ bv1 6)) x_1)))
 (let (($x2831 (= (stack_s x_0 x_1 x_SHA3_0 0 (_ bv0 6)) x_0)))
 (let (($x4356 (= ?x72 (_ bv2 6))))
 (and $x4356 $x2831 $x5442 $x1438 $x6540 $x3682 $x8788 (= ?x7626 (stack_s x_0 x_1 x_SHA3_0 0 (bvadd (_ bv62 6) ?x72))) (= ?x1202 (stack_s x_0 x_1 x_SHA3_0 0 (bvadd (_ bv63 6) ?x72))) (= (used_gas_s x_0 x_1 x_SHA3_0 1) (+ 3 ?x8131)) $x6391 $x4467 $x1764 (= $x189 (or $x57 (not (bvsle (_ bv0 6) (bvadd (_ bv62 6) ?x72))))) (= (stack_s x_0 x_1 x_SHA3_0 2 (bvadd (_ bv63 6) ?x218)) ?x1202) (= (stack_s x_0 x_1 x_SHA3_0 2 ?x1874) ?x1202) (= (stack_s x_0 x_1 x_SHA3_0 2 ?x2527) ?x7626) (= ?x6262 (+ 3 (used_gas_s x_0 x_1 x_SHA3_0 1))) $x4375 $x9537 $x8595 (= $x247 (or $x189 $x4050 $x7215)) (= ?x2030 (stack_s x_0 x_1 x_SHA3_0 2 (bvadd (_ bv62 6) ?x218))) (= ?x3295 (stack_s x_0 x_1 x_SHA3_0 2 (bvadd (_ bv63 6) ?x218))) (= ?x3386 (+ 3 ?x6262)) $x7306 $x8072 $x6173 $x9976 (= ?x7589 (f_SHA3 x_0 x_1 x_SHA3_0 ?x2030 ?x3295)) (= ?x2701 (+ 30 ?x3386)) $x5912 $x5610 $x8575 $x6252 (= ?x2652 (stack_s x_0 x_1 x_SHA3_0 4 (bvadd (_ bv62 6) ?x4305))) (= (stack_s x_0 x_1 x_SHA3_0 5 (bvadd (_ bv62 6) ?x805)) ?x7589) (= ?x8367 (+ 3 ?x2701)) $x7896 $x694 $x259 $x136 (= (stack_s x_0 x_1 x_SHA3_0 6 (bvadd (_ bv63 6) ?x926)) ?x2652) (= (stack_s x_0 x_1 x_SHA3_0 6 ?x5665) ?x2652) $x6060 $x9087 $x1267 $x3194 (= $x772 (or $x3979 (not (bvsle (_ bv0 6) ?x5665)) $x9579)) (= ?x3437 ?x3379) (= (stack_t x_0 x_1 x_SHA3_0 1 ?x4768) ?x3379) (= (used_gas_t x_0 x_1 x_SHA3_0 1) (+ 3 ?x2523)) $x6864 $x10522 $x6067 (= $x8096 (or $x56 $x6182 (not (bvsle (_ bv0 6) ?x4768)))) (= ?x11719 ?x3437) (= (stack_t x_0 x_1 x_SHA3_0 2 ?x2841) ?x3437) (= ?x5924 (+ 3 (used_gas_t x_0 x_1 x_SHA3_0 1))) (= ?x2714 (bvadd (_ bv1 6) ?x10950)) $x2338 $x260 (= $x5252 $x5025) (= ?x8792 (stack_t x_0 x_1 x_SHA3_0 2 (bvadd (_ bv60 6) ?x2714))) (= (stack_t x_0 x_1 x_SHA3_0 3 (bvadd (_ bv60 6) ?x2725)) ?x11719) $x9914 (= ?x111 (stack_t x_0 x_1 x_SHA3_0 2 (bvadd (_ bv62 6) ?x2714))) (= ?x5902 (+ 3 ?x5924)) $x2548 $x3317 $x7610 $x8648 (= ?x3259 (f_SHA3 x_0 x_1 x_SHA3_0 ?x8792 ?x111)) (= ?x1636 (+ 30 ?x5902)) (= ?x3757 ?x6571) $x4029 $x5307 $x6800 $x2247 (= (stack_t x_0 x_1 x_SHA3_0 5 (bvadd (_ bv61 6) ?x919)) ?x3259) $x7357 $x450 (= ?x919 ?x3757) $x1142 $x1615 $x8206 $x73 $x5449 $x58 $x8419 $x5354 (not (and $x929 $x3722 $x889 $x8484))))))))))))))))))))))))))))))))))))))))))))))))))))))))))))))))))))))))))))))))))))))))))))))))))))))))))))))))))))))))))))))
 )
(check-sat)
(get-proof)
